JulietBench/Juliet_Based_Patch_Bench/linux/CWE-189-Numeric-Errors/CVE_2012_2383_ed8cd3b2cd61004cab85380c52b1817aca1ca49b/Resulti915_gem_execbuffer2_Snippet_patch2EQ.smt2
; benchmark generated from python API
(set-info :status unknown)
(declare-fun R () (_ BitVec 32))
(declare-fun rdi () (_ BitVec 64))
(assert
 (let (($x45 (= (_ bv0 32) R)))
 (let (($x49 (= (_ bv4294967274 32) R)))
 (let ((?x6 ((_ extract 31 0) rdi)))
 (let (($x10 (= (_ bv0 32) ?x6)))
 (let (($x50 (and $x10 $x49)))
 (let (($x36 (and (distinct (_ bv0 32) ?x6) true)))
 (let (($x47 (and $x36 $x45)))
 (let (($x51 (or $x47 $x50)))
 (and $x51 $x45))))))))))
(check-sat)
